%
% Problem from Global constraints catalog
%    http://www.emn.fr/x-info/sdemasse/gccat/Ccumulative.html
% Cf http://www.hakank.org/minizinc/cumulative_test.mzn
%
num_jobs = 5;
num_workers = 7;
duration = [3,9,10,6,2];
resource = [1,2, 1,1,3];
max_time = 100; % optimal: 10
allow_idle = true;
collect_workers = false;
do_precendences = false;
num_precedences = 1;
precedences = array2d(1..num_precedences, 1..2, 
[ 
  0,0 % dummy precedence
]);
